DIMENSION: 8
EDGE_WEIGHT_TYPE: EXPLICIT
EDGE_WEIGHT_FORMAT: FULL_MATRIX
EDGE_WEIGHT_SECTION:
32767 32767 32767 32767 32767 32767 61 32767 
32767 32767 32767 100 32767 32767 32767 32767 
32767 32767 32767 32767 32767 32767 32767 32767 
32767 100 32767 32767 32767 11 32767 32767 
32767 32767 32767 32767 32767 22 86 93 
32767 32767 32767 11 22 32767 8 32767 
61 32767 32767 32767 86 8 32767 32767 
32767 32767 32767 32767 93 32767 32767 32767 
EOF